sizeY = [
    45,
    10,
    1,
    46,
    2,
    27,
    2,
    145,
    1,
    145,
    145,
    205,
    2,
    205,
    205,
    2,
    205,
    205,
    205,
    46,
    150,
    147
];
op_cost = [
    1,
    1,
    1,
    1,
    1,
    1,
    1,
    1,
    1,
    1,
    1,
    1,
    1,
    1,
    1,
    1,
    1,
    1,
    1,
    1,
    1,
    1
];
index_dep_info = [
    |20,8
    |2,8
    |3,9
    |8,10
    |9,10
    |10,11
    |21,12
    |4,12
    |5,13
    |12,14
    |13,14
    |22,15
    |6,15
    |7,16
    |15,17
    |16,17
    |14,18
    |17,18
    |18,19
    |1,20
    |11,21
    |11,22|
];
